30	100	100	100
74	96	53
88	80	79
55	72	72
73	68	50
71	95	75
80	76	53
96	77	71
63	79	53
64	65	51
63	61	50
63	98	84
50	80	89
96	86	76
73	84	87
92	90	86
54	67	84
71	86	55
76	81	58
89	64	84
50	61	52
55	89	74
90	71	88
60	92	79
96	98	93
67	87	75
52	72	86
92	87	89
89	73	71
55	73	89
69	56	86
